file-name,time_till_loop,total_elapsed_time,minCost,correctness
../inputs/selected-inputs/E-n76-k8.vrp,0.000000,0.000555,1568.047615,VALID
Route #1: 34 54 46
Route #2: 35 14 59
Route #3: 67 19 8
Route #4: 7 53 11
Route #5: 72 31 10 58
Route #6: 38 65 66
Route #7: 51 49 16
Route #8: 26
Route #9: 6 43 41 33
Route #10: 73 64 42 1
Route #11: 62 22 2 68
Route #12: 12 39
Route #13: 32 50 55 40
Route #14: 3 24
Route #15: 28 61
Route #16: 48 47 36 71 69
Route #17: 63 56 23
Route #18: 75 74 21 30
Route #19: 17 18 44
Route #20: 29 5 37 70 60
Route #21: 27 57
Route #22: 9 25
Route #23: 52 13
Route #24: 4 45 20 15
Cost 1568.047615
